(set-info :smt-lib-version 2.6)
(set-logic LRA)
(set-info :source |
   Monniaux, David; Quantifier Elimination by Lazy Model Enumeration, CAV 2010
|)
(set-info :category "random")
; ./Mjollnir_examples/B5/formula_252.m
(set-info :status sat)
(assert
 (forall ((|v17:0| Real) )(forall ((|v16:1| Real) )(forall ((|v15:2| Real) )(forall ((|v14:3| Real) )(forall ((|v13:4| Real) )(forall ((|v12:5| Real) )(exists ((|v11:6| Real) )(exists ((|v10:7| Real) )(exists ((|v9:8| Real) )(exists ((|v8:9| Real) )(exists ((|v7:10| Real) )(exists ((|v6:11| Real) )(forall ((|v5:12| Real) )(forall ((|v4:13| Real) )(forall ((|v3:14| Real) )(forall ((|v2:15| Real) )(forall ((|v1:16| Real) )(forall ((|v0:17| Real) )(let ((?x299 (- 13)))
(let ((?x470 (+ (+ (* (- 8) |v8:9|) (* (- 15) |v1:16|)) (* (- 5) |v13:4|))))
(let ((?x105 14))
(let ((?x124 (- 8)))
(let ((?x280 (* ?x124 |v5:12|)))
(let ((?x463 (+ (+ (* (- 15) |v0:17|) (* 7 |v0:17|)) (* 10 |v14:3|))))
(let (($x474 (or (<= (+ ?x463 ?x280) ?x105) (<= (+ ?x470 (* (- 9) |v11:6|)) ?x299))))
(let ((?x100 9))
(let ((?x454 (+ (+ (* (- 6) |v12:5|) (* 12 |v12:5|)) (* (- 17) |v15:2|))))
(let ((?x96 15))
(let ((?x113 0))
(let ((?x402 (* ?x113 |v12:5|)))
(let ((?x448 (+ (+ (* 17 |v7:10|) (* (- 6) |v11:6|)) (* 3 |v12:5|))))
(let (($x458 (or (<= (+ ?x448 ?x402) ?x96) (<= (+ ?x454 (* 19 |v11:6|)) ?x100))))
(let ((?x272 (- 20)))
(let ((?x439 (+ (+ (* 2 |v0:17|) (* (- 12) |v6:11|)) (* (- 5) |v16:1|))))
(let ((?x14 (- 6)))
(let ((?x431 (+ (+ (* ?x14 |v16:1|) (* 20 |v2:15|)) (* (- 1) |v3:14|))))
(let (($x443 (and (<= (+ ?x431 (* ?x299 |v15:2|)) ?x14) (<= (+ ?x439 (* 12 |v7:10|)) ?x272))))
(let ((?x86 3))
(let ((?x422 (+ (+ (* (- 12) |v4:13|) (* 11 |v5:12|)) (* 17 |v1:16|))))
(let ((?x116 19))
(let ((?x414 (+ (+ (* (- 12) |v2:15|) (* ?x86 |v8:9|)) (* (- 14) |v0:17|))))
(let (($x426 (and (<= (+ ?x414 (* 16 |v12:5|)) ?x116) (<= (+ ?x422 (* (- 1) |v9:8|)) ?x86))))
(let ((?x266 (- 9)))
(let ((?x405 (+ (+ (+ (* (- 7) |v3:14|) (* (- 5) |v0:17|)) ?x402) (* 7 |v10:7|))))
(let ((?x262 (- 4)))
(let ((?x395 (+ (+ (* (- 11) |v6:11|) (* (- 2) |v7:10|)) (* ?x116 |v4:13|))))
(let ((?x142 6))
(let ((?x389 (+ (+ (+ (* 7 |v14:3|) |v8:9|) (* 5 |v6:11|)) (* (- 14) |v1:16|))))
(let ((?x34 (- 18)))
(let ((?x380 (+ (+ (* 7 |v8:9|) (* (- 5) |v10:7|)) (* (- 12) |v12:5|))))
(let (($x408 (and (or (<= (+ ?x380 (* ?x96 |v4:13|)) ?x34) (<= ?x389 ?x142)) (and (<= (+ ?x395 (* (- 10) |v8:9|)) ?x262) (<= ?x405 ?x266)))))
(let ((?x48 (- 2)))
(let ((?x370 (+ (+ (* (- 15) |v8:9|) (* 20 |v10:7|)) (* 18 |v13:4|))))
(let ((?x362 (+ (+ (* ?x86 |v1:16|) (* 10 |v6:11|)) (* (- 19) |v4:13|))))
(let (($x374 (and (<= (+ ?x362 (* ?x272 |v2:15|)) ?x266) (<= (+ ?x370 (* ?x142 |v8:9|)) ?x48))))
(let ((?x150 (- 15)))
(let ((?x355 (* ?x14 |v11:6|)))
(let ((?x218 (- 10)))
(let ((?x237 (* ?x218 |v12:5|)))
(let ((?x356 (+ (+ (+ (* 12 |v6:11|) (* 7 |v12:5|)) ?x237) ?x355)))
(let ((?x71 4))
(let ((?x52 (- 1)))
(let ((?x289 (* ?x52 |v11:6|)))
(let ((?x349 (+ (+ (+ (* 2 |v11:6|) (* 7 |v6:11|)) ?x289) (* ?x266 |v14:3|))))
(let (($x477 (and (or (and (and (<= ?x349 ?x71) (<= ?x356 ?x150)) $x374) $x408) (and (or $x426 $x443) (and $x458 $x474)))))
(let ((?x339 12))
(let ((?x336 (+ (+ (* 2 |v10:7|) (* ?x34 |v17:0|)) (* (- 11) |v9:8|))))
(let ((?x329 (+ (+ (+ (* ?x150 |v14:3|) (* ?x150 |v7:10|)) (* ?x100 |v5:12|)) (* ?x124 |v7:10|))))
(let ((?x25 2))
(let ((?x320 (+ (+ (* 8 |v0:17|) (* (- 5) |v4:13|)) (* ?x299 |v14:3|))))
(let (($x341 (and (and (<= (+ ?x320 (* (- 19) |v7:10|)) ?x25) (<= ?x329 ?x100)) (<= (+ ?x336 (* 17 |v9:8|)) ?x339))))
(let ((?x312 (+ (+ (+ (* ?x142 |v14:3|) (* ?x299 |v9:8|)) (* 5 |v17:0|)) (* ?x218 |v13:4|))))
(let ((?x10 (- 19)))
(let ((?x11 (* ?x10 |v1:16|)))
(let ((?x303 (+ (+ (* (- 5) |v1:16|) (* ?x299 |v13:4|)) (* 13 |v6:11|))))
(let ((?x292 (+ (+ (+ (* (- 11) |v14:3|) (* (- 11) |v2:15|)) ?x289) (* (- 17) |v17:0|))))
(let ((?x285 (+ (+ (+ (* 17 |v5:12|) ?x280) (* 10 |v6:11|)) (* ?x116 |v0:17|))))
(let (($x315 (or (and (<= ?x285 ?x86) (<= ?x292 ?x113)) (or (<= (+ ?x303 ?x11) ?x262) (<= ?x312 ?x218)))))
(let ((?x270 (+ (+ (* (- 7) |v8:9|) (* ?x266 |v6:11|)) (* (- 3) |v16:1|))))
(let ((?x259 (+ (+ (* 16 |v1:16|) (* (- 14) |v2:15|)) (* 18 |v5:12|))))
(let (($x276 (and (<= (+ ?x259 (* ?x100 |v0:17|)) ?x262) (<= (+ ?x270 (* ?x272 |v10:7|)) ?x100))))
(let ((?x250 (+ (+ (+ (* ?x142 |v16:1|) (* ?x10 |v8:9|)) (* 8 |v11:6|)) (* ?x10 |v10:7|))))
(let ((?x81 18))
(let (($x243 (<= (+ (+ (+ ?x237 (* ?x142 |v15:2|)) |v12:5|) (* (- 11) |v14:3|)) ?x81)))
(let ((?x67 (- 17)))
(let ((?x232 (* ?x25 |v10:7|)))
(let ((?x231 (+ (+ (* (- 7) |v9:8|) (* ?x218 |v16:1|)) (* 5 |v13:4|))))
(let ((?x226 8))
(let ((?x225 (+ (+ (+ (* ?x218 |v16:1|) (* ?x48 |v10:7|)) (* 17 |v12:5|)) (* ?x52 |v6:11|))))
(let ((?x212 (+ (+ (+ |v2:15| (* (- 7) |v5:12|)) (* (- 16) |v13:4|)) |v9:8|)))
(let ((?x162 (- 16)))
(let ((?x203 (+ (+ (* ?x48 |v11:6|) (* 16 |v4:13|)) (* 7 |v3:14|))))
(let (($x215 (or (<= (+ ?x203 (* (- 11) |v11:6|)) ?x162) (<= ?x212 (- 3)))))
(let (($x278 (and (and $x215 (or (<= ?x225 ?x226) (<= (+ ?x231 ?x232) ?x67))) (or (and $x243 (<= ?x250 ?x113)) $x276))))
(let ((?x193 (+ (+ (* ?x96 |v9:8|) (* 20 |v3:14|)) (* 17 |v8:9|))))
(let ((?x184 (+ (+ (+ (* ?x150 |v16:1|) (* ?x150 |v9:8|)) (* (- 11) |v10:7|)) (* ?x86 |v16:1|))))
(let ((?x172 (+ (+ (* 7 |v2:15|) (* 5 |v3:14|)) (* 16 |v14:3|))))
(let ((?x90 16))
(let ((?x165 (* ?x90 |v1:16|)))
(let ((?x166 (+ (+ (+ (* 5 |v15:2|) (* ?x14 |v13:4|)) (* ?x162 |v7:10|)) ?x165)))
(let ((?x151 (* ?x150 |v14:3|)))
(let ((?x148 (+ (+ (* 7 |v11:6|) (* ?x142 |v2:15|)) (* 20 |v9:8|))))
(let ((?x138 (+ (+ (+ (* ?x52 |v16:1|) (* 10 |v2:15|)) (* ?x105 |v8:9|)) (* ?x86 |v6:11|))))
(let (($x177 (or (or (<= ?x138 ?x34) (<= (+ ?x148 ?x151) ?x105)) (or (<= ?x166 ?x86) (<= (+ ?x172 (* ?x100 |v7:10|)) ?x34)))))
(let (($x197 (or (or $x177 (<= ?x184 ?x52)) (<= (+ ?x193 (* 10 |v16:1|)) ?x150))))
(let ((?x126 (+ (+ (+ (* ?x113 |v16:1|) (* ?x116 |v6:11|)) (* 13 |v17:0|)) (* ?x124 |v14:3|))))
(let ((?x107 (+ (+ (+ (* ?x52 |v12:5|) (* ?x96 |v14:3|)) (* ?x100 |v2:15|)) (* ?x105 |v11:6|))))
(let ((?x92 (+ (+ (+ (* ?x52 |v0:17|) (* ?x81 |v6:11|)) (* ?x86 |v7:10|)) (* ?x90 |v17:0|))))
(let ((?x76 (+ (+ (+ (* (- 11) |v6:11|) (* ?x67 |v0:17|)) (* ?x71 |v10:7|)) (* ?x10 |v14:3|))))
(let ((?x30 (- 12)))
(let ((?x59 (+ (+ (+ (* 11 |v16:1|) (* ?x48 |v12:5|)) (* ?x52 |v5:12|)) (* (- 7) |v15:2|))))
(let (($x110 (and (and (<= ?x59 ?x30) (<= ?x76 ?x14)) (and (<= ?x92 ?x14) (<= ?x107 ?x96)))))
(let ((?x42 11))
(let (($x43 (<= (+ (+ (+ (* ?x30 |v17:0|) (* ?x34 |v9:8|)) (* ?x14 |v12:5|)) |v10:7|) ?x42)))
(let ((?x19 7))
(let ((?x23 (* ?x19 |v2:15|)))
(let (($x44 (and (<= (+ (+ (+ ?x11 (* ?x14 |v4:13|)) (* ?x19 |v5:12|)) ?x23) ?x25) $x43)))
(or (or (and (or $x44 $x110) (<= ?x126 ?x71)) $x197) (and (or $x278 (and $x315 $x341)) $x477))))))))))))))))))))))))))))))))))))))))))))))))))))))))))))))))))))))))))))))))))))))))))))))))))))))
)
)
)
)
)
)
)
)
)
)
)
)
)
)
)
)
)
)
(check-sat)
(exit)

